p cnf 161616 96
10143 0
10209 0
10706 0
10945 0
11004 0
11144 0
11348 0
11403 0
20545 0
20642 0
20746 0
20804 0
21406 0
30348 0
30603 0
30801 0
31108 0
31347 0
31507 0
40246 0
40402 0
40705 0
41247 0
50404 0
50505 0
50601 0
50709 0
50845 0
50908 0
51446 0
60148 0
60243 0
60608 0
60707 0
61603 0
70108 0
70247 0
71007 0
71309 0
71501 0
80102 0
80346 0
80606 0
80944 0
81148 0
81242 0
81545 0
81604 0
90145 0
90201 0
90504 0
90648 0
90808 0
91107 0
91447 0
91602 0
100206 0
100444 0
100742 0
101505 0
101601 0
110142 0
111005 0
111104 0
111544 0
111646 0
120308 0
120805 0
120906 0
121042 0
121143 0
121246 0
121304 0
130509 0
131047 0
131301 0
131508 0
140202 0
140448 0
140646 0
140909 0
141105 0
141445 0
150309 0
150907 0
151003 0
151101 0
151204 0
160306 0
160447 0
160605 0
160744 0
160848 0
161046 0
161503 0
161607 0
